p cnf 187 1348
1 2 3 4 5 6 7 8 9 10 11 0
12 13 14 15 16 17 18 19 20 21 22 0
23 24 25 26 27 28 29 30 31 32 33 0
34 35 36 37 38 39 40 41 42 43 44 0
45 46 47 48 49 50 51 52 53 54 55 0
56 57 58 59 60 61 62 63 64 65 66 0
67 68 69 70 71 72 73 74 75 76 77 0
78 79 80 81 82 83 84 85 86 87 88 0
89 90 91 92 93 94 95 96 97 98 99 0
100 101 102 103 104 105 106 107 108 109 110 0
111 112 113 114 115 116 117 118 119 120 121 0
122 123 124 125 126 127 128 129 130 131 132 0
133 134 135 136 137 138 139 140 141 142 143 0
144 145 146 147 148 149 150 151 152 153 154 0
155 156 157 158 159 160 161 162 163 164 165 0
166 167 168 169 170 171 172 173 174 175 176 0
177 178 179 180 181 182 183 184 185 186 187 0
-34 -89 0
-35 -90 0
-36 -91 0
-37 -92 0
-38 -93 0
-39 -94 0
-40 -95 0
-41 -96 0
-42 -97 0
-43 -98 0
-44 -99 0
-23 -133 0
-24 -134 0
-25 -135 0
-26 -136 0
-27 -137 0
-28 -138 0
-29 -139 0
-30 -140 0
-31 -141 0
-32 -142 0
-33 -143 0
-45 -100 0
-46 -101 0
-47 -102 0
-48 -103 0
-49 -104 0
-50 -105 0
-51 -106 0
-52 -107 0
-53 -108 0
-54 -109 0
-55 -110 0
-78 -89 0
-79 -90 0
-80 -91 0
-81 -92 0
-82 -93 0
-83 -94 0
-84 -95 0
-85 -96 0
-86 -97 0
-87 -98 0
-88 -99 0
-111 -144 0
-112 -145 0
-113 -146 0
-114 -147 0
-115 -148 0
-116 -149 0
-117 -150 0
-118 -151 0
-119 -152 0
-120 -153 0
-121 -154 0
-12 -111 0
-13 -112 0
-14 -113 0
-15 -114 0
-16 -115 0
-17 -116 0
-18 -117 0
-19 -118 0
-20 -119 0
-21 -120 0
-22 -121 0
-1 -155 0
-2 -156 0
-3 -157 0
-4 -158 0
-5 -159 0
-6 -160 0
-7 -161 0
-8 -162 0
-9 -163 0
-10 -164 0
-11 -165 0
-56 -111 0
-57 -112 0
-58 -113 0
-59 -114 0
-60 -115 0
-61 -116 0
-62 -117 0
-63 -118 0
-64 -119 0
-65 -120 0
-66 -121 0
-166 -133 0
-167 -134 0
-168 -135 0
-169 -136 0
-170 -137 0
-171 -138 0
-172 -139 0
-173 -140 0
-174 -141 0
-175 -142 0
-176 -143 0
-67 -100 0
-68 -101 0
-69 -102 0
-70 -103 0
-71 -104 0
-72 -105 0
-73 -106 0
-74 -107 0
-75 -108 0
-76 -109 0
-77 -110 0
-23 -56 0
-24 -57 0
-25 -58 0
-26 -59 0
-27 -60 0
-28 -61 0
-29 -62 0
-30 -63 0
-31 -64 0
-32 -65 0
-33 -66 0
-23 -155 0
-24 -156 0
-25 -157 0
-26 -158 0
-27 -159 0
-28 -160 0
-29 -161 0
-30 -162 0
-31 -163 0
-32 -164 0
-33 -165 0
-45 -122 0
-46 -123 0
-47 -124 0
-48 -125 0
-49 -126 0
-50 -127 0
-51 -128 0
-52 -129 0
-53 -130 0
-54 -131 0
-55 -132 0
-78 -111 0
-79 -112 0
-80 -113 0
-81 -114 0
-82 -115 0
-83 -116 0
-84 -117 0
-85 -118 0
-86 -119 0
-87 -120 0
-88 -121 0
-144 -155 0
-145 -156 0
-146 -157 0
-147 -158 0
-148 -159 0
-149 -160 0
-150 -161 0
-151 -162 0
-152 -163 0
-153 -164 0
-154 -165 0
-89 -100 0
-90 -101 0
-91 -102 0
-92 -103 0
-93 -104 0
-94 -105 0
-95 -106 0
-96 -107 0
-97 -108 0
-98 -109 0
-99 -110 0
-12 -34 0
-13 -35 0
-14 -36 0
-15 -37 0
-16 -38 0
-17 -39 0
-18 -40 0
-19 -41 0
-20 -42 0
-21 -43 0
-22 -44 0
-111 -166 0
-112 -167 0
-113 -168 0
-114 -169 0
-115 -170 0
-116 -171 0
-117 -172 0
-118 -173 0
-119 -174 0
-120 -175 0
-121 -176 0
-1 -78 0
-2 -79 0
-3 -80 0
-4 -81 0
-5 -82 0
-6 -83 0
-7 -84 0
-8 -85 0
-9 -86 0
-10 -87 0
-11 -88 0
-155 -166 0
-156 -167 0
-157 -168 0
-158 -169 0
-159 -170 0
-160 -171 0
-161 -172 0
-162 -173 0
-163 -174 0
-164 -175 0
-165 -176 0
-56 -133 0
-57 -134 0
-58 -135 0
-59 -136 0
-60 -137 0
-61 -138 0
-62 -139 0
-63 -140 0
-64 -141 0
-65 -142 0
-66 -143 0
-67 -122 0
-68 -123 0
-69 -124 0
-70 -125 0
-71 -126 0
-72 -127 0
-73 -128 0
-74 -129 0
-75 -130 0
-76 -131 0
-77 -132 0
-23 -78 0
-24 -79 0
-25 -80 0
-26 -81 0
-27 -82 0
-28 -83 0
-29 -84 0
-30 -85 0
-31 -86 0
-32 -87 0
-33 -88 0
-45 -144 0
-46 -145 0
-47 -146 0
-48 -147 0
-49 -148 0
-50 -149 0
-51 -150 0
-52 -151 0
-53 -152 0
-54 -153 0
-55 -154 0
-89 -122 0
-90 -123 0
-91 -124 0
-92 -125 0
-93 -126 0
-94 -127 0
-95 -128 0
-96 -129 0
-97 -130 0
-98 -131 0
-99 -132 0
-1 -100 0
-2 -101 0
-3 -102 0
-4 -103 0
-5 -104 0
-6 -105 0
-7 -106 0
-8 -107 0
-9 -108 0
-10 -109 0
-11 -110 0
-67 -144 0
-68 -145 0
-69 -146 0
-70 -147 0
-71 -148 0
-72 -149 0
-73 -150 0
-74 -151 0
-75 -152 0
-76 -153 0
-77 -154 0
-122 -133 0
-123 -134 0
-124 -135 0
-125 -136 0
-126 -137 0
-127 -138 0
-128 -139 0
-129 -140 0
-130 -141 0
-131 -142 0
-132 -143 0
-23 -100 0
-24 -101 0
-25 -102 0
-26 -103 0
-27 -104 0
-28 -105 0
-29 -106 0
-30 -107 0
-31 -108 0
-32 -109 0
-33 -110 0
-45 -67 0
-46 -68 0
-47 -69 0
-48 -70 0
-49 -71 0
-50 -72 0
-51 -73 0
-52 -74 0
-53 -75 0
-54 -76 0
-55 -77 0
-45 -166 0
-46 -167 0
-47 -168 0
-48 -169 0
-49 -170 0
-50 -171 0
-51 -172 0
-52 -173 0
-53 -174 0
-54 -175 0
-55 -176 0
-89 -144 0
-90 -145 0
-91 -146 0
-92 -147 0
-93 -148 0
-94 -149 0
-95 -150 0
-96 -151 0
-97 -152 0
-98 -153 0
-99 -154 0
-1 -23 0
-2 -24 0
-3 -25 0
-4 -26 0
-5 -27 0
-6 -28 0
-7 -29 0
-8 -30 0
-9 -31 0
-10 -32 0
-11 -33 0
-100 -155 0
-101 -156 0
-102 -157 0
-103 -158 0
-104 -159 0
-105 -160 0
-106 -161 0
-107 -162 0
-108 -163 0
-109 -164 0
-110 -165 0
-1 -122 0
-2 -123 0
-3 -124 0
-4 -125 0
-5 -126 0
-6 -127 0
-7 -128 0
-8 -129 0
-9 -130 0
-10 -131 0
-11 -132 0
-133 -144 0
-134 -145 0
-135 -146 0
-136 -147 0
-137 -148 0
-138 -149 0
-139 -150 0
-140 -151 0
-141 -152 0
-142 -153 0
-143 -154 0
-67 -166 0
-68 -167 0
-69 -168 0
-70 -169 0
-71 -170 0
-72 -171 0
-73 -172 0
-74 -173 0
-75 -174 0
-76 -175 0
-77 -176 0
-122 -155 0
-123 -156 0
-124 -157 0
-125 -158 0
-126 -159 0
-127 -160 0
-128 -161 0
-129 -162 0
-130 -163 0
-131 -164 0
-132 -165 0
-23 -122 0
-24 -123 0
-25 -124 0
-26 -125 0
-27 -126 0
-28 -127 0
-29 -128 0
-30 -129 0
-31 -130 0
-32 -131 0
-33 -132 0
-45 -89 0
-46 -90 0
-47 -91 0
-48 -92 0
-49 -93 0
-50 -94 0
-51 -95 0
-52 -96 0
-53 -97 0
-54 -98 0
-55 -99 0
-34 -111 0
-35 -112 0
-36 -113 0
-37 -114 0
-38 -115 0
-39 -116 0
-40 -117 0
-41 -118 0
-42 -119 0
-43 -120 0
-44 -121 0
-89 -166 0
-90 -167 0
-91 -168 0
-92 -169 0
-93 -170 0
-94 -171 0
-95 -172 0
-96 -173 0
-97 -174 0
-98 -175 0
-99 -176 0
-1 -45 0
-2 -46 0
-3 -47 0
-4 -48 0
-5 -49 0
-6 -50 0
-7 -51 0
-8 -52 0
-9 -53 0
-10 -54 0
-11 -55 0
-1 -144 0
-2 -145 0
-3 -146 0
-4 -147 0
-5 -148 0
-6 -149 0
-7 -150 0
-8 -151 0
-9 -152 0
-10 -153 0
-11 -154 0
-12 -133 0
-13 -134 0
-14 -135 0
-15 -136 0
-16 -137 0
-17 -138 0
-18 -139 0
-19 -140 0
-20 -141 0
-21 -142 0
-22 -143 0
-166 -122 0
-167 -123 0
-168 -124 0
-169 -125 0
-170 -126 0
-171 -127 0
-172 -128 0
-173 -129 0
-174 -130 0
-175 -131 0
-176 -132 0
-67 -89 0
-68 -90 0
-69 -91 0
-70 -92 0
-71 -93 0
-72 -94 0
-73 -95 0
-74 -96 0
-75 -97 0
-76 -98 0
-77 -99 0
-23 -45 0
-24 -46 0
-25 -47 0
-26 -48 0
-27 -49 0
-28 -50 0
-29 -51 0
-30 -52 0
-31 -53 0
-32 -54 0
-33 -55 0
-23 -144 0
-24 -145 0
-25 -146 0
-26 -147 0
-27 -148 0
-28 -149 0
-29 -150 0
-30 -151 0
-31 -152 0
-32 -153 0
-33 -154 0
-45 -111 0
-46 -112 0
-47 -113 0
-48 -114 0
-49 -115 0
-50 -116 0
-51 -117 0
-52 -118 0
-53 -119 0
-54 -120 0
-55 -121 0
-34 -133 0
-35 -134 0
-36 -135 0
-37 -136 0
-38 -137 0
-39 -138 0
-40 -139 0
-41 -140 0
-42 -141 0
-43 -142 0
-44 -143 0
-78 -133 0
-79 -134 0
-80 -135 0
-81 -136 0
-82 -137 0
-83 -138 0
-84 -139 0
-85 -140 0
-86 -141 0
-87 -142 0
-88 -143 0
-1 -67 0
-2 -68 0
-3 -69 0
-4 -70 0
-5 -71 0
-6 -72 0
-7 -73 0
-8 -74 0
-9 -75 0
-10 -76 0
-11 -77 0
-12 -56 0
-13 -57 0
-14 -58 0
-15 -59 0
-16 -60 0
-17 -61 0
-18 -62 0
-19 -63 0
-20 -64 0
-21 -65 0
-22 -66 0
-1 -166 0
-2 -167 0
-3 -168 0
-4 -169 0
-5 -170 0
-6 -171 0
-7 -172 0
-8 -173 0
-9 -174 0
-10 -175 0
-11 -176 0
-12 -155 0
-13 -156 0
-14 -157 0
-15 -158 0
-16 -159 0
-17 -160 0
-18 -161 0
-19 -162 0
-20 -163 0
-21 -164 0
-22 -165 0
-67 -111 0
-68 -112 0
-69 -113 0
-70 -114 0
-71 -115 0
-72 -116 0
-73 -117 0
-74 -118 0
-75 -119 0
-76 -120 0
-77 -121 0
-56 -155 0
-57 -156 0
-58 -157 0
-59 -158 0
-60 -159 0
-61 -160 0
-62 -161 0
-63 -162 0
-64 -163 0
-65 -164 0
-66 -165 0
-23 -67 0
-24 -68 0
-25 -69 0
-26 -70 0
-27 -71 0
-28 -72 0
-29 -73 0
-30 -74 0
-31 -75 0
-32 -76 0
-33 -77 0
-34 -56 0
-35 -57 0
-36 -58 0
-37 -59 0
-38 -60 0
-39 -61 0
-40 -62 0
-41 -63 0
-42 -64 0
-43 -65 0
-44 -66 0
-23 -166 0
-24 -167 0
-25 -168 0
-26 -169 0
-27 -170 0
-28 -171 0
-29 -172 0
-30 -173 0
-31 -174 0
-32 -175 0
-33 -176 0
-45 -133 0
-46 -134 0
-47 -135 0
-48 -136 0
-49 -137 0
-50 -138 0
-51 -139 0
-52 -140 0
-53 -141 0
-54 -142 0
-55 -143 0
-34 -155 0
-35 -156 0
-36 -157 0
-37 -158 0
-38 -159 0
-39 -160 0
-40 -161 0
-41 -162 0
-42 -163 0
-43 -164 0
-44 -165 0
-144 -166 0
-145 -167 0
-146 -168 0
-147 -169 0
-148 -170 0
-149 -171 0
-150 -172 0
-151 -173 0
-152 -174 0
-153 -175 0
-154 -176 0
-78 -155 0
-79 -156 0
-80 -157 0
-81 -158 0
-82 -159 0
-83 -160 0
-84 -161 0
-85 -162 0
-86 -163 0
-87 -164 0
-88 -165 0
-100 -122 0
-101 -123 0
-102 -124 0
-103 -125 0
-104 -126 0
-105 -127 0
-106 -128 0
-107 -129 0
-108 -130 0
-109 -131 0
-110 -132 0
-1 -89 0
-2 -90 0
-3 -91 0
-4 -92 0
-5 -93 0
-6 -94 0
-7 -95 0
-8 -96 0
-9 -97 0
-10 -98 0
-11 -99 0
-12 -78 0
-13 -79 0
-14 -80 0
-15 -81 0
-16 -82 0
-17 -83 0
-18 -84 0
-19 -85 0
-20 -86 0
-21 -87 0
-22 -88 0
-56 -78 0
-57 -79 0
-58 -80 0
-59 -81 0
-60 -82 0
-61 -83 0
-62 -84 0
-63 -85 0
-64 -86 0
-65 -87 0
-66 -88 0
-23 -89 0
-24 -90 0
-25 -91 0
-26 -92 0
-27 -93 0
-28 -94 0
-29 -95 0
-30 -96 0
-31 -97 0
-32 -98 0
-33 -99 0
-45 -56 0
-46 -57 0
-47 -58 0
-48 -59 0
-49 -60 0
-50 -61 0
-51 -62 0
-52 -63 0
-53 -64 0
-54 -65 0
-55 -66 0
-34 -78 0
-35 -79 0
-36 -80 0
-37 -81 0
-38 -82 0
-39 -83 0
-40 -84 0
-41 -85 0
-42 -86 0
-43 -87 0
-44 -88 0
-1 -12 0
-2 -13 0
-3 -14 0
-4 -15 0
-5 -16 0
-6 -17 0
-7 -18 0
-8 -19 0
-9 -20 0
-10 -21 0
-11 -22 0
-78 -177 0
-79 -178 0
-80 -179 0
-81 -180 0
-82 -181 0
-83 -182 0
-84 -183 0
-85 -184 0
-86 -185 0
-87 -186 0
-88 -187 0
-100 -144 0
-101 -145 0
-102 -146 0
-103 -147 0
-104 -148 0
-105 -149 0
-106 -150 0
-107 -151 0
-108 -152 0
-109 -153 0
-110 -154 0
-1 -111 0
-2 -112 0
-3 -113 0
-4 -114 0
-5 -115 0
-6 -116 0
-7 -117 0
-8 -118 0
-9 -119 0
-10 -120 0
-11 -121 0
-111 -133 0
-112 -134 0
-113 -135 0
-114 -136 0
-115 -137 0
-116 -138 0
-117 -139 0
-118 -140 0
-119 -141 0
-120 -142 0
-121 -143 0
-12 -100 0
-13 -101 0
-14 -102 0
-15 -103 0
-16 -104 0
-17 -105 0
-18 -106 0
-19 -107 0
-20 -108 0
-21 -109 0
-22 -110 0
-56 -100 0
-57 -101 0
-58 -102 0
-59 -103 0
-60 -104 0
-61 -105 0
-62 -106 0
-63 -107 0
-64 -108 0
-65 -109 0
-66 -110 0
-122 -144 0
-123 -145 0
-124 -146 0
-125 -147 0
-126 -148 0
-127 -149 0
-128 -150 0
-129 -151 0
-130 -152 0
-131 -153 0
-132 -154 0
-23 -111 0
-24 -112 0
-25 -113 0
-26 -114 0
-27 -115 0
-28 -116 0
-29 -117 0
-30 -118 0
-31 -119 0
-32 -120 0
-33 -121 0
-34 -100 0
-35 -101 0
-36 -102 0
-37 -103 0
-38 -104 0
-39 -105 0
-40 -106 0
-41 -107 0
-42 -108 0
-43 -109 0
-44 -110 0
-78 -100 0
-79 -101 0
-80 -102 0
-81 -103 0
-82 -104 0
-83 -105 0
-84 -106 0
-85 -107 0
-86 -108 0
-87 -109 0
-88 -110 0
-1 -34 0
-2 -35 0
-3 -36 0
-4 -37 0
-5 -38 0
-6 -39 0
-7 -40 0
-8 -41 0
-9 -42 0
-10 -43 0
-11 -44 0
-12 -23 0
-13 -24 0
-14 -25 0
-15 -26 0
-16 -27 0
-17 -28 0
-18 -29 0
-19 -30 0
-20 -31 0
-21 -32 0
-22 -33 0
-100 -166 0
-101 -167 0
-102 -168 0
-103 -169 0
-104 -170 0
-105 -171 0
-106 -172 0
-107 -173 0
-108 -174 0
-109 -175 0
-110 -176 0
-1 -133 0
-2 -134 0
-3 -135 0
-4 -136 0
-5 -137 0
-6 -138 0
-7 -139 0
-8 -140 0
-9 -141 0
-10 -142 0
-11 -143 0
-111 -155 0
-112 -156 0
-113 -157 0
-114 -158 0
-115 -159 0
-116 -160 0
-117 -161 0
-118 -162 0
-119 -163 0
-120 -164 0
-121 -165 0
-12 -122 0
-13 -123 0
-14 -124 0
-15 -125 0
-16 -126 0
-17 -127 0
-18 -128 0
-19 -129 0
-20 -130 0
-21 -131 0
-22 -132 0
-56 -122 0
-57 -123 0
-58 -124 0
-59 -125 0
-60 -126 0
-61 -127 0
-62 -128 0
-63 -129 0
-64 -130 0
-65 -131 0
-66 -132 0
-23 -34 0
-24 -35 0
-25 -36 0
-26 -37 0
-27 -38 0
-28 -39 0
-29 -40 0
-30 -41 0
-31 -42 0
-32 -43 0
-33 -44 0
-34 -122 0
-35 -123 0
-36 -124 0
-37 -125 0
-38 -126 0
-39 -127 0
-40 -128 0
-41 -129 0
-42 -130 0
-43 -131 0
-44 -132 0
-78 -122 0
-79 -123 0
-80 -124 0
-81 -125 0
-82 -126 0
-83 -127 0
-84 -128 0
-85 -129 0
-86 -130 0
-87 -131 0
-88 -132 0
-1 -56 0
-2 -57 0
-3 -58 0
-4 -59 0
-5 -60 0
-6 -61 0
-7 -62 0
-8 -63 0
-9 -64 0
-10 -65 0
-11 -66 0
-89 -111 0
-90 -112 0
-91 -113 0
-92 -114 0
-93 -115 0
-94 -116 0
-95 -117 0
-96 -118 0
-97 -119 0
-98 -120 0
-99 -121 0
-12 -45 0
-13 -46 0
-14 -47 0
-15 -48 0
-16 -49 0
-17 -50 0
-18 -51 0
-19 -52 0
-20 -53 0
-21 -54 0
-22 -55 0
-12 -144 0
-13 -145 0
-14 -146 0
-15 -147 0
-16 -148 0
-17 -149 0
-18 -150 0
-19 -151 0
-20 -152 0
-21 -153 0
-22 -154 0
-56 -144 0
-57 -145 0
-58 -146 0
-59 -147 0
-60 -148 0
-61 -149 0
-62 -150 0
-63 -151 0
-64 -152 0
-65 -153 0
-66 -154 0
-67 -133 0
-68 -134 0
-69 -135 0
-70 -136 0
-71 -137 0
-72 -138 0
-73 -139 0
-74 -140 0
-75 -141 0
-76 -142 0
-77 -143 0
-34 -45 0
-35 -46 0
-36 -47 0
-37 -48 0
-38 -49 0
-39 -50 0
-40 -51 0
-41 -52 0
-42 -53 0
-43 -54 0
-44 -55 0
-34 -144 0
-35 -145 0
-36 -146 0
-37 -147 0
-38 -148 0
-39 -149 0
-40 -150 0
-41 -151 0
-42 -152 0
-43 -153 0
-44 -154 0
-45 -155 0
-46 -156 0
-47 -157 0
-48 -158 0
-49 -159 0
-50 -160 0
-51 -161 0
-52 -162 0
-53 -163 0
-54 -164 0
-55 -165 0
-78 -144 0
-79 -145 0
-80 -146 0
-81 -147 0
-82 -148 0
-83 -149 0
-84 -150 0
-85 -151 0
-86 -152 0
-87 -153 0
-88 -154 0
-100 -111 0
-101 -112 0
-102 -113 0
-103 -114 0
-104 -115 0
-105 -116 0
-106 -117 0
-107 -118 0
-108 -119 0
-109 -120 0
-110 -121 0
-89 -133 0
-90 -134 0
-91 -135 0
-92 -136 0
-93 -137 0
-94 -138 0
-95 -139 0
-96 -140 0
-97 -141 0
-98 -142 0
-99 -143 0
-12 -67 0
-13 -68 0
-14 -69 0
-15 -70 0
-16 -71 0
-17 -72 0
-18 -73 0
-19 -74 0
-20 -75 0
-21 -76 0
-22 -77 0
-56 -67 0
-57 -68 0
-58 -69 0
-59 -70 0
-60 -71 0
-61 -72 0
-62 -73 0
-63 -74 0
-64 -75 0
-65 -76 0
-66 -77 0
-56 -166 0
-57 -167 0
-58 -168 0
-59 -169 0
-60 -170 0
-61 -171 0
-62 -172 0
-63 -173 0
-64 -174 0
-65 -175 0
-66 -176 0
-67 -155 0
-68 -156 0
-69 -157 0
-70 -158 0
-71 -159 0
-72 -160 0
-73 -161 0
-74 -162 0
-75 -163 0
-76 -164 0
-77 -165 0
-34 -67 0
-35 -68 0
-36 -69 0
-37 -70 0
-38 -71 0
-39 -72 0
-40 -73 0
-41 -74 0
-42 -75 0
-43 -76 0
-44 -77 0
-34 -166 0
-35 -167 0
-36 -168 0
-37 -169 0
-38 -170 0
-39 -171 0
-40 -172 0
-41 -173 0
-42 -174 0
-43 -175 0
-44 -176 0
-177 -1 0
-178 -2 0
-179 -3 0
-180 -4 0
-181 -5 0
-182 -6 0
-183 -7 0
-184 -8 0
-185 -9 0
-186 -10 0
-187 -11 0
-45 -78 0
-46 -79 0
-47 -80 0
-48 -81 0
-49 -82 0
-50 -83 0
-51 -84 0
-52 -85 0
-53 -86 0
-54 -87 0
-55 -88 0
-78 -166 0
-79 -167 0
-80 -168 0
-81 -169 0
-82 -170 0
-83 -171 0
-84 -172 0
-85 -173 0
-86 -174 0
-87 -175 0
-88 -176 0
-100 -133 0
-101 -134 0
-102 -135 0
-103 -136 0
-104 -137 0
-105 -138 0
-106 -139 0
-107 -140 0
-108 -141 0
-109 -142 0
-110 -143 0
-89 -155 0
-90 -156 0
-91 -157 0
-92 -158 0
-93 -159 0
-94 -160 0
-95 -161 0
-96 -162 0
-97 -163 0
-98 -164 0
-99 -165 0
-111 -122 0
-112 -123 0
-113 -124 0
-114 -125 0
-115 -126 0
-116 -127 0
-117 -128 0
-118 -129 0
-119 -130 0
-120 -131 0
-121 -132 0
-12 -89 0
-13 -90 0
-14 -91 0
-15 -92 0
-16 -93 0
-17 -94 0
-18 -95 0
-19 -96 0
-20 -97 0
-21 -98 0
-22 -99 0
-133 -155 0
-134 -156 0
-135 -157 0
-136 -158 0
-137 -159 0
-138 -160 0
-139 -161 0
-140 -162 0
-141 -163 0
-142 -164 0
-143 -165 0
-56 -89 0
-57 -90 0
-58 -91 0
-59 -92 0
-60 -93 0
-61 -94 0
-62 -95 0
-63 -96 0
-64 -97 0
-65 -98 0
-66 -99 0
-67 -78 0
-68 -79 0
-69 -80 0
-70 -81 0
-71 -82 0
-72 -83 0
-73 -84 0
-74 -85 0
-75 -86 0
-76 -87 0
-77 -88 0
